Minimize
    30 x1 + 48 x2 + 44 x3 + 56 x4

Subject To
    R1: x1 + x2 + x3 + x4 = 10000
    R2: 0.069 x1 + 0.085 x2 + 0.09 x3 + 0.271 x4 = 1500
    R3: 0.06 x1 + 0.11 x2 + 0.11 x3 + 0.14 x4 >= 800
    R4: 1760 x1 + 1700 x2 + 1056 x3 + 1400 x4 >= 11000000
    R5: 1760 x1 + 1700 x2 + 1056 x3 + 1400 x4 <= 22500000
    R6: x4 >= 2000
    R7: x3 <= 1200

Bounds
    x1 >= 0
    x2 >= 0
    x3 >= 0
    x4 >= 0

End
